int NumberPatients = 136
int NumberOfRooms = 2
int NumberSurgeons = 24
int NumberOfDays = 6
Duration = [60,68,31,132,47,29,66,53,120,103,66,252,47,60,119,140,32,119,32,93,98,31,74,103,31,60,66,31,32,114,119,46,119,98,31,131,32,117,210,85,101,47,47,78,50,47,117,103,30,76,50,47,122,29,50,131,66,53,244,98,119,98,103,47,98,105,119,66,47,66,60,100,46,47,32,131,30,119,47,66,41,32,33,131,66,112,68,132,210,47,46,66,72,30,66,98,32,72,210,119,210,157,31,166,98,32,53,103,93,105,103,59,32,60,119,159,50,210,75,47,79,72,53,98,75,32,47,66,66,50,30,103,32,53,92,126];
Priority = [0,0,0,0,0,1,0,0,0,0,0,0,0,0,0,0,0,0,0,0,0,0,0,0,0,0,1,0,0,0,0,0,0,0,0,0,0,0,0,0,0,0,0,1,0,0,0,0,0,0,0,0,0,0,0,0,0,0,0,0,0,0,0,0,0,0,0,0,1,0,0,0,0,0,0,0,0,0,0,0,0,0,0,0,0,0,0,0,0,0,0,0,0,0,0,0,0,0,0,1,0,0,0,0,0,0,0,0,0,0,0,0,0,0,0,0,0,0,2,0,0,0,0,0,0,0,0,0,0,0,0,0,0,0,0,0];
Waiting = [135,51,45,95,32,518,99,175,73,63,283,70,79,214,32,80,127,79,220,120,150,70,275,242,84,113,37,57,36,78,78,67,30,53,473,249,37,473,53,98,95,79,25,84,172,214,424,37,24,487,184,25,23,73,358,366,37,72,80,480,221,51,31,283,186,199,85,57,375,38,81,95,37,424,548,358,135,205,134,277,113,78,99,39,35,155,186,32,25,141,175,473,60,30,473,24,36,213,170,39,120,99,57,120,389,191,221,366,317,107,556,66,50,148,120,102,172,56,410,410,64,38,324,107,200,172,178,366,151,315,256,52,70,56,51,25];
Surgeon = [6,9,4,1,2,1,5,6,9,2,5,1,6,5,3,4,12,10,6,8,10,1,3,2,2,3,5,11,6,9,5,6,10,8,3,6,6,5,11,6,10,8,3,2,6,1,3,10,1,1,1,6,4,5,1,9,1,2,1,3,2,5,6,6,3,5,8,4,2,3,9,2,3,1,4,8,1,1,3,8,1,1,7,4,1,3,4,1,3,3,4,7,5,3,2,6,1,2,12,6,4,5,5,2,1,5,5,4,5,6,3,1,5,2,6,1,1,3,8,6,2,13,4,7,1,10,5,2,3,6,7,7,2,5,3,7];
BlockAvailability = [[[1,0],[0,0]],[[1,0],[0,0]],[[0,0],[0,0]],[[1,0],[0,0]],[[0,0],[0,0]],[[1,0],[0,0]]];
SurgeonAvailability = [[[1,0],[1,1],[1,0],[1,1],[0,1],[1,1]],[[1,1],[0,1],[0,1],[1,1],[1,1],[0,1]],[[1,1],[1,0],[1,1],[1,0],[1,1],[0,1]],[[0,1],[0,1],[1,1],[1,1],[1,0],[0,1]],[[1,1],[1,0],[1,1],[1,1],[1,1],[0,1]],[[1,0],[0,1],[1,1],[0,1],[1,1],[1,1]],[[1,1],[1,1],[1,1],[1,1],[1,1],[1,1]],[[1,1],[1,1],[1,1],[1,1],[0,1],[1,0]],[[1,1],[0,1],[1,1],[1,1],[1,1],[1,1]],[[1,1],[1,1],[1,1],[1,1],[1,0],[1,1]],[[1,1],[1,0],[1,1],[1,1],[1,1],[1,1]],[[1,1],[1,0],[1,1],[1,1],[1,1],[1,1]],[[0,1],[1,1],[1,0],[1,1],[0,1],[0,0]],[[1,1],[1,1],[0,1],[1,1],[1,1],[0,1]],[[0,1],[1,1],[1,0],[1,1],[1,1],[1,1]],[[1,1],[1,1],[1,0],[1,1],[1,1],[1,1]],[[1,1],[1,0],[0,1],[0,1],[1,1],[1,1]],[[1,1],[1,1],[1,0],[1,1],[1,1],[1,1]],[[1,1],[0,0],[0,1],[1,1],[1,1],[1,1]],[[1,1],[1,1],[1,0],[0,0],[1,1],[1,1]],[[1,1],[1,0],[1,0],[1,1],[1,1],[1,1]],[[1,1],[1,0],[1,1],[0,1],[1,1],[0,1]],[[1,1],[0,1],[1,1],[1,1],[1,0],[1,1]],[[1,0],[1,1],[1,1],[0,1],[1,1],[1,0]]];
